qe/outputs/qe/cbrdelay_obs_newl/T=6,eliminate=[I_0,I_1,I_2,I_3,I_4,I_5,L_5,lhs=L_4],pl=1.smt2
; benchmark generated from python API
(set-info :status unknown)
(declare-fun L_4 () Real)
(declare-fun C () Real)
(declare-fun A_4 () Real)
(declare-fun S_5 () Real)
(declare-fun S_4 () Real)
(declare-fun S_0 () Real)
(declare-fun L_0 () Real)
(declare-fun A_0 () Real)
(declare-fun S_3 () Real)
(declare-fun S_1 () Real)
(declare-fun S_2 () Real)
(declare-fun L_3 () Real)
(declare-fun A_1 () Real)
(declare-fun L_1 () Real)
(declare-fun B () Real)
(declare-fun A_2 () Real)
(declare-fun L_2 () Real)
(declare-fun A_5 () Real)
(declare-fun A_3 () Real)
(assert
 (let (($x39 (>= L_0 0.0)))
 (let (($x771 (>= C 5.0)))
 (let (($x1463 (<= (+ (* (- 1.0) S_5) A_4 (* (- 1.0) L_4)) 0.0)))
 (let (($x11655 (or $x1463 (not (<= 0.0 (+ (* (- 1.0) A_4) (* 2.0 C) S_2 L_4))))))
 (let (($x7766 (<= 0.0 (+ (* (- 1.0) A_4) (* 2.0 C) S_2 L_4))))
 (let (($x7459 (not (<= 0.0 (+ L_3 (* (- 1.0) L_4))))))
 (let (($x520 (<= 0.0 (+ L_3 (* (- 1.0) L_1) A_1 (* (- 1.0) A_4) (* 3.0 C)))))
 (let (($x56 (= L_1 L_0)))
 (let (($x11624 (or $x56 (<= (+ S_5 L_1 (* (- 1.0) A_1) (* (- 4.0) C) B) 0.0))))
 (let (($x11248 (or $x56 (<= (+ S_4 L_1 (* (- 1.0) A_1) (* (- 3.0) C) B) 0.0))))
 (let ((?x265 (* (- 1.0) B)))
 (let ((?x1188 (* 3.0 C)))
 (let ((?x442 (* (- 1.0) A_4)))
 (let ((?x274 (* (- 1.0) L_1)))
 (let (($x542 (<= 0.0 (+ ?x274 A_1 ?x442 ?x1188 L_4 ?x265))))
 (let (($x11590 (or $x56 (<= (+ L_1 (* (- 1.0) A_1) (* (- 2.0) C) S_3 B) 0.0))))
 (let (($x980 (not $x56)))
 (let (($x86 (= L_4 L_3)))
 (let (($x11276 (or $x86 $x980 (<= (+ (* (- 1.0) L_0) A_1 ?x442 ?x1188 L_4) 0.0))))
 (let (($x2270 (<= (+ A_4 (* (- 3.0) C) (* (- 1.0) S_2) (* (- 1.0) L_4) ?x265) 0.0)))
 (let (($x2264 (<= (+ A_4 (* (- 4.0) C) (* (- 1.0) S_1) (* (- 1.0) L_4) ?x265) 0.0)))
 (let (($x2242 (<= (+ A_4 (* (- 2.0) C) (* (- 1.0) S_3) (* (- 1.0) L_4) ?x265) 0.0)))
 (let ((?x325 (* (- 1.0) L_4)))
 (let ((?x1247 (* (- 4.0) C)))
 (let ((?x1372 (* (- 1.0) A_0)))
 (let (($x66 (= L_2 L_1)))
 (let (($x1045 (not $x66)))
 (let (($x506 (not (<= 0.0 (+ L_1 (* (- 1.0) L_2))))))
 (let (($x7960 (or $x56 $x506 (<= (+ (* (- 1.0) A_1) A_2 (* (- 1.0) C)) 0.0))))
 (let (($x1598 (<= (+ A_2 (* (- 1.0) C) (* (- 1.0) S_2) (* (- 1.0) L_2) ?x265) 0.0)))
 (let (($x11827 (or $x66 (<= (+ (* (- 1.0) A_2) (* 2.0 C) S_0 L_2 B) 0.0))))
 (let (($x1812 (<= (+ ?x1372 L_0 A_2 (* (- 2.0) C) (* (- 1.0) L_2) ?x265) 0.0)))
 (let (($x1769 (<= (+ A_2 (* (- 3.0) C) (* (- 1.0) S_0) (* (- 1.0) L_2) ?x265) 0.0)))
 (let (($x749 (<= (+ A_2 (* (- 2.0) C) (* (- 1.0) S_1) (* (- 1.0) L_2) ?x265) 0.0)))
 (let (($x11773 (or $x66 $x980 (<= (+ (* (- 1.0) L_0) A_1 (* (- 1.0) A_2) C L_2) 0.0))))
 (let ((?x912 (+ L_0 ?x274)))
 (let (($x564 (<= 0.0 ?x912)))
 (let (($x11617 (or $x66 (<= (+ S_5 (* (- 1.0) A_2) (* (- 3.0) C) L_2 B) 0.0))))
 (let (($x8050 (or $x66 (<= 0.0 (+ L_3 ?x442 A_2 (* 2.0 C) (* (- 1.0) L_2))) $x7459)))
 (let (($x7992 (or $x56 (<= (+ L_1 (* (- 1.0) A_1) (* (- 1.0) C) S_2 B) 0.0))))
 (let (($x8146 (or $x66 $x86 (= (+ ?x442 A_2 (* 2.0 C) (* (- 1.0) L_2) L_4) 0.0))))
 (let (($x8170 (or $x66 (<= (+ (* (- 1.0) A_2) (* (- 1.0) C) S_3 L_2 B) 0.0))))
 (let (($x1708 (<= (+ A_2 (* (- 1.0) S_3) (* (- 1.0) L_2) ?x265) 0.0)))
 (let (($x146 (>= A_5 A_4)))
 (let (($x76 (= L_3 L_2)))
 (let (($x128 (>= S_1 S_0)))
 (let (($x131 (>= S_2 S_1)))
 (let (($x134 (>= S_3 S_2)))
 (let (($x137 (>= S_4 S_3)))
 (let (($x143 (>= A_2 A_1)))
 (let (($x144 (>= A_3 A_2)))
 (let (($x145 (>= A_4 A_3)))
 (and (<= (+ A_3 (* (- 1.0) L_3)) S_5) (<= (+ A_0 (* (- 1.0) L_0)) S_4) (not (<= (+ A_1 ?x274) S_4)) $x145 $x144 $x143 $x137 $x134 $x131 $x128 $x76 (or $x56 (not $x564)) (or $x56 (<= (+ L_1 (* (- 1.0) A_1) S_1 B) 0.0)) (or $x56 (<= (+ L_1 (* (- 1.0) A_1) C S_0 B) 0.0)) (<= (+ (* (- 1.0) S_4) ?x274 A_1 (* 2.0 C) ?x265) 0.0) $x146 (or $x66 (<= (+ (* (- 1.0) A_2) S_2 L_2 B) 0.0)) (or $x66 (<= (+ (* (- 1.0) A_2) C S_1 L_2 B) 0.0)) $x1708 (<= (+ ?x274 A_1 (* (- 1.0) C) (* (- 1.0) S_1) ?x265) 0.0) (<= (+ ?x1372 L_0 ?x274 A_1 (* (- 1.0) C) ?x265) 0.0) $x8170 (<= (+ ?x274 A_1 C (* (- 1.0) S_3) ?x265) 0.0) $x8146 $x7992 (<= (+ ?x274 A_1 (* (- 2.0) C) (* (- 1.0) S_0) ?x265) 0.0) (or $x66 $x506) (<= (+ (* (- 1.0) S_4) A_2 C (* (- 1.0) L_2) ?x265) 0.0) (<= (+ ?x274 A_1 (* (- 1.0) S_2) ?x265) 0.0) $x8050 (or $x66 $x564 (= (+ ?x274 A_1 (* (- 1.0) A_2) C L_2) 0.0)) $x11617 (<= (+ (* (- 1.0) S_5) A_4 ?x325 ?x265) 0.0) (or $x86 $x564 (= (+ ?x274 A_1 ?x442 ?x1188 L_4) 0.0)) (or $x86 (<= (+ S_4 ?x442 L_4 B) 0.0)) (<= (+ (* (- 1.0) S_4) A_4 (* (- 1.0) C) ?x325 ?x265) 0.0) $x11773 (<= (+ S_5 (* (- 1.0) A_5) L_4) 0.0) $x749 $x1769 $x1812 $x11827 $x1598 $x7960 (or $x86 (<= (+ ?x442 (* 2.0 C) S_2 L_4 B) 0.0)) (or $x86 (<= (+ ?x442 C S_3 L_4 B) 0.0)) (or $x86 $x1045 (<= (+ ?x274 ?x442 A_2 (* 2.0 C) L_4) 0.0)) (or $x86 $x7459) (or $x86 (<= (+ ?x442 ?x1188 S_1 L_4 B) 0.0)) (<= (+ A_4 (* (- 5.0) C) (* (- 1.0) S_0) ?x325 ?x265) 0.0) (<= (+ ?x1372 L_0 A_4 ?x1247 ?x325 ?x265) 0.0) (or $x86 (<= (+ S_5 ?x442 (* (- 1.0) C) L_4 B) 0.0)) $x2242 $x2264 $x2270 (or $x86 (<= (+ ?x442 (* 4.0 C) S_0 L_4 B) 0.0)) $x11276 $x11590 (or $x542 (<= (+ (* (- 1.0) S_5) ?x274 A_1 ?x1188 ?x265) 0.0)) (or (not $x542) $x1463) $x11248 $x11624 (or $x56 $x520 $x7459) (<= (+ (* (- 2.0) C) S_3 (* (- 1.0) S_2)) 0.0) (<= (+ ?x1372 L_0 (* (- 3.0) C) S_3) 0.0) (<= (+ ?x1247 S_3 (* (- 1.0) S_0)) 0.0) (<= (+ (* (- 3.0) C) S_3 (* (- 1.0) S_1)) 0.0) (<= (+ (* (- 1.0) S_4) ?x1188 S_0) 0.0) (<= (+ ?x1372 L_0 (* (- 1.0) C) S_1) 0.0) (<= (+ (* (- 1.0) S_4) (* 2.0 C) S_1) 0.0) (<= (+ (* (- 1.0) S_4) C S_2) 0.0) (<= (+ ?x1372 L_0 (* (- 2.0) C) S_2) 0.0) (<= (+ (* (- 2.0) C) S_1 (* (- 1.0) S_0)) 0.0) (<= (+ (* (- 2.0) C) S_2 (* (- 1.0) S_1)) 0.0) (<= (+ (* (- 3.0) C) S_2 (* (- 1.0) S_0)) 0.0) (<= (+ C (* (- 1.0) S_3) S_1) 0.0) (<= (+ (* 2.0 C) (* (- 1.0) S_3) S_0) 0.0) (<= (+ C (* (- 1.0) S_2) S_0) 0.0) (<= (+ S_4 ?x1372 L_0 ?x1247) 0.0) (<= (+ S_4 (* (- 3.0) C) (* (- 1.0) S_2)) 0.0) (<= (+ S_4 (* (- 5.0) C) (* (- 1.0) S_0)) 0.0) (or (<= (+ (* (- 1.0) S_5) (* 2.0 C) S_2) 0.0) $x7766) $x11655 (or $x1463 (<= (+ (* (- 1.0) S_5) C S_3) 0.0)) (or $x1463 (<= (+ (* (- 1.0) S_5) ?x1188 S_1) 0.0)) (or $x1463 (<= (+ (* (- 1.0) S_5) (* 4.0 C) S_0) 0.0)) (<= (+ S_4 (* (- 2.0) C) (* (- 1.0) S_3)) 0.0) (<= (+ S_5 ?x1247 (* (- 1.0) S_2)) 0.0) (<= (+ S_5 (* (- 5.0) C) (* (- 1.0) S_1)) 0.0) (<= (+ S_4 ?x1247 (* (- 1.0) S_1)) 0.0) (<= (+ S_5 (* (- 3.0) C) (* (- 1.0) S_3)) 0.0) (<= (+ S_5 ?x1372 L_0 (* (- 5.0) C)) 0.0) (<= (+ S_5 (* (- 6.0) C) (* (- 1.0) S_0)) 0.0) $x771 $x39 (<= (+ ?x1372 L_0 S_0) 0.0) (<= (+ S_5 (* (- 1.0) S_4) (* (- 2.0) C)) 0.0) (<= (+ S_5 ?x442 (* (- 1.0) C) L_4) 0.0)))))))))))))))))))))))))))))))))))))))))))))))))))))))
(check-sat)
